$molecule
0 1
  H    0.0000000    0.0000000    0.0000000 
  C    0.0000000    1.0000000    0.0000000 
  N    0.0000000    2.0000000    0.0000000 
$end

$rem
mem_total               230000
mem_static              2048
job_type                optimization
basis                   aug-cc-pvtz 
method                  b3lyp 
symmetry                false
sym_ignore              true
geom_opt_max_cycles     500
$end
